c nIsolatedPIs 40
c maxPI 24
p cnf 70 139
c gate 25 2 14 0
2 -25 0
14 -25 0
-2 -14 25 0
c gate 26 1 13 0
1 -26 0
13 -26 0
-1 -13 26 0
c gate 27 -25 -26 0
-25 -27 0
-26 -27 0
25 26 27 0
c gate 28 -3 -15 0
-3 -28 0
-15 -28 0
3 15 28 0
c gate 29 -2 -14 0
-2 -29 0
-14 -29 0
2 14 29 0
c gate 30 -28 -29 0
-28 -30 0
-29 -30 0
28 29 30 0
c gate 31 -27 30 0
-27 -31 0
30 -31 0
27 -30 31 0
c gate 32 4 16 0
4 -32 0
16 -32 0
-4 -16 32 0
c gate 33 3 15 0
3 -33 0
15 -33 0
-3 -15 33 0
c gate 34 -32 -33 0
-32 -34 0
-33 -34 0
32 33 34 0
c gate 35 -31 34 0
-31 -35 0
34 -35 0
31 -34 35 0
c gate 36 -4 -16 0
-4 -36 0
-16 -36 0
4 16 36 0
c gate 37 -5 -17 0
-5 -37 0
-17 -37 0
5 17 37 0
c gate 38 -36 -37 0
-36 -38 0
-37 -38 0
36 37 38 0
c gate 39 -35 38 0
-35 -39 0
38 -39 0
35 -38 39 0
c gate 40 6 18 0
6 -40 0
18 -40 0
-6 -18 40 0
c gate 41 5 17 0
5 -41 0
17 -41 0
-5 -17 41 0
c gate 42 -40 -41 0
-40 -42 0
-41 -42 0
40 41 42 0
c gate 43 -39 42 0
-39 -43 0
42 -43 0
39 -42 43 0
c gate 44 -7 -19 0
-7 -44 0
-19 -44 0
7 19 44 0
c gate 45 -6 -18 0
-6 -45 0
-18 -45 0
6 18 45 0
c gate 46 -44 -45 0
-44 -46 0
-45 -46 0
44 45 46 0
c gate 47 -43 46 0
-43 -47 0
46 -47 0
43 -46 47 0
c gate 48 7 19 0
7 -48 0
19 -48 0
-7 -19 48 0
c gate 49 8 20 0
8 -49 0
20 -49 0
-8 -20 49 0
c gate 50 -48 -49 0
-48 -50 0
-49 -50 0
48 49 50 0
c gate 51 -47 50 0
-47 -51 0
50 -51 0
47 -50 51 0
c gate 52 12 24 0
12 -52 0
24 -52 0
-12 -24 52 0
c gate 53 -12 -24 0
-12 -53 0
-24 -53 0
12 24 53 0
c gate 54 11 23 0
11 -54 0
23 -54 0
-11 -23 54 0
c gate 55 -53 54 0
-53 -55 0
54 -55 0
53 -54 55 0
c gate 56 -52 -55 0
-52 -56 0
-55 -56 0
52 55 56 0
c gate 57 -10 -22 0
-10 -57 0
-22 -57 0
10 22 57 0
c gate 58 -11 -23 0
-11 -58 0
-23 -58 0
11 23 58 0
c gate 59 -53 -58 0
-53 -59 0
-58 -59 0
53 58 59 0
c gate 60 -57 59 0
-57 -60 0
59 -60 0
57 -59 60 0
c gate 61 56 60 0
56 -61 0
60 -61 0
-56 -60 61 0
c gate 62 9 21 0
9 -62 0
21 -62 0
-9 -21 62 0
c gate 63 10 22 0
10 -63 0
22 -63 0
-10 -22 63 0
c gate 64 -62 -63 0
-62 -64 0
-63 -64 0
62 63 64 0
c gate 65 -9 -21 0
-9 -65 0
-21 -65 0
9 21 65 0
c gate 66 -8 -20 0
-8 -66 0
-20 -66 0
8 20 66 0
c gate 67 -65 -66 0
-65 -67 0
-66 -67 0
65 66 67 0
c gate 68 64 67 0
64 -68 0
67 -68 0
-64 -67 68 0
c gate 69 61 68 0
61 -69 0
68 -69 0
-61 -68 69 0
c gate 70 -51 69 0
-51 -70 0
69 -70 0
51 -69 70 0
c PO
70 0
